rc101_3
0 95 70 71 88 62 57 92 64 102 80 63 82 30 28 26 53 69 61 96 97 99 101 66 1 6 8 10 50 13 51 9 7 11 12 84 78 19 52 22 21 20 18 14 15 16 17 83 65 58 103 74 93 60 105 75 1 47 49 48 45 41 40 42 43 44 46 77 76 39 36 34 32 31 33 35 37 38 55 67 72 98 59 86 73 1 87 104 91 79 29 27 25 54 24 23 94 81 56 68 90 89 100 85 0